Mack/Bortfeldt(2008)
Bin-Packing-Problem
BP-RG/SBSBPP/SSSCSP
Testcase-ID	12
Problem-ID	134
no_item_types	642
no_items	2007
CONTAINER_DATA (l,w,h)	404	50	1
ITEMS_DATA:
Type	x	y	z	no_items
1	57	50	1	3
2	55	50	1	2
3	54	50	1	3
4	56	48	1	1
5	56	47	1	2
6	58	45	1	1
7	54	48	1	2
8	55	47	1	1
9	52	48	1	3
10	57	43	1	2
11	51	48	1	3
12	59	41	1	1
13	50	48	1	5
14	59	40	1	2
15	58	40	1	4
16	59	39	1	3
17	60	38	1	3
18	49	46	1	3
19	59	38	1	3
20	57	39	1	5
21	47	47	1	3
22	49	45	1	2
23	50	44	1	3
24	57	38	1	5
25	47	46	1	2
26	60	36	1	5
27	54	40	1	3
28	55	39	1	2
29	52	40	1	5
30	59	35	1	7
31	49	42	1	7
32	50	41	1	1
33	53	38	1	2
34	59	34	1	2
35	51	39	1	6
36	60	33	1	4
37	55	36	1	1
38	45	44	1	5
39	60	33	1	6
40	47	42	1	3
41	48	41	1	1
42	49	40	1	2
43	59	33	1	3
44	54	36	1	1
45	51	38	1	4
46	55	35	1	4
47	44	43	1	3
48	54	35	1	7
49	45	42	1	7
50	59	32	1	1
51	51	37	1	2
52	57	33	1	3
53	48	39	1	6
54	52	36	1	3
55	58	32	1	2
56	53	35	1	3
57	50	37	1	3
58	44	42	1	2
59	46	40	1	1
60	47	39	1	4
61	49	37	1	1
62	47	38	1	2
63	51	35	1	2
64	52	34	1	5
65	49	36	1	6
66	45	39	1	4
67	48	36	1	3
68	54	32	1	5
69	43	40	1	4
70	44	39	1	4
71	57	30	1	8
72	45	38	1	2
73	50	34	1	2
74	47	36	1	3
75	51	33	1	2
76	43	39	1	1
77	44	38	1	3
78	45	37	1	8
79	46	36	1	3
80	59	28	1	6
81	50	33	1	5
82	47	35	1	3
83	53	31	1	3
84	43	38	1	3
85	48	34	1	3
86	46	35	1	2
87	41	39	1	1
88	47	34	1	3
89	42	38	1	2
90	55	29	1	3
91	59	27	1	3
92	43	37	1	1
93	51	31	1	7
94	45	35	1	4
95	49	32	1	2
96	58	27	1	2
97	41	38	1	3
98	42	37	1	4
99	47	33	1	6
100	43	36	1	3
101	44	35	1	2
102	48	32	1	3
103	59	26	1	3
104	40	38	1	6
105	49	31	1	2
106	46	33	1	5
107	42	36	1	3
108	56	27	1	3
109	54	28	1	7
110	52	29	1	4
111	43	35	1	6
112	47	32	1	6
113	50	30	1	3
114	44	34	1	5
115	48	31	1	4
116	39	38	1	4
117	41	36	1	3
118	43	34	1	2
119	47	31	1	1
120	52	28	1	3
121	44	33	1	4
122	50	29	1	1
123	38	38	1	2
124	39	37	1	2
125	48	30	1	3
126	40	36	1	3
127	42	34	1	4
128	46	31	1	2
129	43	33	1	2
130	47	30	1	3
131	44	32	1	4
132	38	37	1	5
133	39	36	1	4
134	54	26	1	2
135	39	36	1	4
136	54	26	1	2
137	50	28	1	3
138	40	35	1	2
139	48	29	1	6
140	58	24	1	4
141	48	29	1	1
142	46	30	1	1
143	60	23	1	2
144	43	32	1	3
145	37	37	1	3
146	38	36	1	2
147	44	31	1	2
148	47	29	1	9
149	41	33	1	5
150	54	25	1	2
151	45	30	1	4
152	48	28	1	5
153	43	31	1	3
154	37	36	1	4
155	39	34	1	3
156	49	27	1	5
157	55	24	1	1
158	40	33	1	2
159	55	24	1	6
160	40	33	1	2
161	47	28	1	2
162	41	32	1	2
163	57	23	1	1
164	45	29	1	6
165	42	31	1	5
166	52	25	1	6
167	54	24	1	5
168	36	36	1	1
169	48	27	1	1
170	37	35	1	2
171	38	34	1	4
172	43	30	1	4
173	56	23	1	2
174	40	32	1	3
175	58	22	1	3
176	44	29	1	6
177	49	26	1	2
178	47	27	1	4
179	55	23	1	3
180	42	30	1	4
181	45	28	1	5
182	36	35	1	1
183	37	34	1	5
184	38	33	1	3
185	48	26	1	4
186	39	32	1	5
187	54	23	1	3
188	40	31	1	2
189	44	28	1	5
190	56	22	1	4
191	41	30	1	3
192	35	35	1	2
193	49	25	1	3
194	37	33	1	8
195	58	21	1	4
196	38	32	1	2
197	55	22	1	2
198	39	31	1	4
199	43	28	1	3
200	52	23	1	4
201	35	34	1	4
202	41	29	1	3
203	37	32	1	3
204	38	31	1	6
205	42	28	1	4
206	56	21	1	3
207	51	23	1	2
208	45	26	1	3
209	55	21	1	3
210	35	33	1	3
211	55	21	1	5
212	48	24	1	1
213	36	32	1	2
214	48	24	1	2
215	46	25	1	3
216	41	28	1	2
217	52	22	1	2
218	38	30	1	4
219	42	27	1	2
220	49	23	1	1
221	56	20	1	5
222	40	28	1	1
223	43	26	1	7
224	36	31	1	3
225	37	30	1	5
226	41	27	1	6
227	46	24	1	5
228	48	23	1	3
229	38	29	1	3
230	58	19	1	4
231	44	25	1	3
232	55	20	1	4
233	39	28	1	2
234	34	32	1	3
235	57	19	1	2
236	60	18	1	3
237	36	30	1	4
238	40	27	1	3
239	45	24	1	2
240	49	22	1	1
241	37	29	1	3
242	41	26	1	4
243	56	19	1	1
244	59	18	1	1
245	46	23	1	3
246	48	22	1	6
247	44	24	1	2
248	33	32	1	2
249	39	27	1	2
250	35	30	1	3
251	50	21	1	5
252	42	25	1	5
253	58	18	1	3
254	52	20	1	2
255	37	28	1	3
256	45	23	1	3
257	47	22	1	3
258	49	21	1	5
259	38	27	1	2
260	41	25	1	2
261	33	31	1	3
262	34	30	1	2
263	35	29	1	3
264	39	26	1	3
265	46	22	1	2
266	42	24	1	3
267	48	21	1	1
268	42	24	1	3
269	37	27	1	4
270	32	31	1	5
271	33	30	1	5
272	45	22	1	5
273	38	26	1	4
274	52	19	1	3
275	34	29	1	2
276	41	24	1	2
277	49	20	1	1
278	39	25	1	3
279	36	27	1	4
280	42	23	1	3
281	40	24	1	2
282	48	20	1	4
283	40	24	1	4
284	33	29	1	2
285	38	25	1	5
286	50	19	1	3
287	35	27	1	2
288	45	21	1	2
289	47	20	1	2
290	36	26	1	2
291	39	24	1	2
292	36	26	1	5
293	52	18	1	4
294	55	17	1	3
295	37	25	1	4
296	42	22	1	3
297	44	21	1	3
298	46	20	1	4
299	34	27	1	3
300	51	18	1	2
301	57	16	1	4
302	38	24	1	2
303	35	26	1	3
304	43	21	1	4
305	41	22	1	2
306	50	18	1	3
307	36	25	1	2
308	31	29	1	2
309	39	23	1	3
310	33	27	1	4
311	34	26	1	4
312	44	20	1	1
313	55	16	1	3
314	40	22	1	1
315	35	25	1	3
316	46	19	1	3
317	30	29	1	4
318	31	28	1	2
319	51	17	1	3
320	48	18	1	2
321	32	27	1	3
322	48	18	1	8
323	33	26	1	2
324	39	22	1	6
325	33	26	1	4
326	39	22	1	3
327	50	17	1	4
328	34	25	1	4
329	53	16	1	4
330	47	18	1	2
331	29	29	1	4
332	35	24	1	2
333	40	21	1	4
334	35	24	1	2
335	30	28	1	2
336	31	27	1	3
337	38	22	1	4
338	44	19	1	4
339	38	22	1	3
340	49	17	1	2
341	52	16	1	2
342	36	23	1	3
343	46	18	1	6
344	33	25	1	2
345	43	19	1	4
346	34	24	1	2
347	37	22	1	2
348	29	28	1	4
349	54	15	1	2
350	45	18	1	5
351	30	27	1	2
352	54	15	1	3
353	31	26	1	4
354	35	23	1	5
355	32	25	1	2
356	50	16	1	5
357	40	20	1	2
358	38	21	1	2
359	42	19	1	1
360	38	21	1	5
361	53	15	1	2
362	33	24	1	5
363	36	22	1	3
364	28	28	1	4
365	29	27	1	7
366	46	17	1	1
367	34	23	1	3
368	30	26	1	4
369	41	19	1	8
370	37	21	1	2
371	31	25	1	3
372	35	22	1	2
373	48	16	1	4
374	32	24	1	2
375	45	17	1	4
376	38	20	1	4
377	40	19	1	3
378	28	27	1	4
379	42	18	1	2
380	36	21	1	2
381	28	27	1	1
382	58	13	1	3
383	47	16	1	1
384	30	25	1	5
385	50	15	1	1
386	44	17	1	2
387	31	24	1	3
388	39	19	1	2
389	32	23	1	3
390	46	16	1	6
391	32	23	1	2
392	49	15	1	1
393	35	21	1	2
394	27	27	1	4
395	28	26	1	2
396	52	14	1	2
397	28	26	1	3
398	33	22	1	3
399	29	25	1	3
400	38	19	1	3
401	40	18	1	1
402	30	24	1	4
403	36	20	1	6
404	55	13	1	2
405	34	21	1	5
406	51	14	1	4
407	31	23	1	5
408	47	15	1	2
409	32	22	1	3
410	44	16	1	4
411	37	19	1	4
412	35	20	1	2
413	28	25	1	1
414	50	14	1	2
415	29	24	1	1
416	30	23	1	6
417	49	14	1	3
418	36	19	1	2
419	40	17	1	5
420	34	20	1	6
421	26	26	1	3
422	45	15	1	3
423	56	12	1	7
424	32	21	1	2
425	29	23	1	3
426	37	18	1	8
427	35	19	1	3
428	39	17	1	6
429	30	22	1	5
430	26	25	1	4
431	36	18	1	3
432	27	24	1	2
433	38	17	1	4
434	43	15	1	2
435	32	20	1	1
436	29	22	1	3
437	49	13	1	4
438	35	18	1	1
439	45	14	1	5
440	42	15	1	4
441	35	18	1	2
442	37	17	1	2
443	33	19	1	2
444	39	16	1	2
445	26	24	1	4
446	27	23	1	6
447	31	20	1	4
448	28	22	1	5
449	34	18	1	1
450	36	17	1	2
451	34	18	1	5
452	29	21	1	5
453	38	16	1	4
454	32	19	1	2
455	40	15	1	2
456	30	20	1	5
457	40	15	1	1
458	26	23	1	2
459	35	17	1	1
460	33	18	1	1
461	27	22	1	5
462	33	18	1	2
463	31	19	1	2
464	42	14	1	4
465	28	21	1	5
466	42	14	1	3
467	28	21	1	1
468	45	13	1	3
469	29	20	1	2
470	34	17	1	7
471	32	18	1	3
472	36	16	1	2
473	25	23	1	3
474	26	22	1	4
475	44	13	1	2
476	38	15	1	1
477	30	19	1	1
478	38	15	1	3
479	27	21	1	2
480	33	17	1	2
481	51	11	1	3
482	28	20	1	1
483	35	16	1	5
484	28	20	1	5
485	31	18	1	3
486	46	12	1	2
487	50	11	1	3
488	42	13	1	5
489	39	14	1	3
490	32	17	1	1
491	30	18	1	5
492	36	15	1	2
493	49	11	1	3
494	41	13	1	1
495	28	19	1	2
496	38	14	1	1
497	24	22	1	2
498	48	11	1	3
499	31	17	1	5
500	25	21	1	3
501	35	15	1	2
502	25	21	1	4
503	40	13	1	2
504	26	20	1	3
505	43	12	1	4
506	32	16	1	2
507	34	15	1	4
508	28	18	1	2
509	42	12	1	3
510	28	18	1	2
511	36	14	1	4
512	25	20	1	1
513	31	16	1	3
514	33	15	1	4
515	45	11	1	2
516	29	17	1	1
517	41	12	1	4
518	49	10	1	1
519	35	14	1	4
520	27	18	1	4
521	23	21	1	1
522	37	13	1	4
523	30	16	1	3
524	40	12	1	4
525	30	16	1	3
526	40	12	1	2
527	24	20	1	6
528	40	12	1	1
529	28	17	1	1
530	25	19	1	2
531	39	12	1	1
532	31	15	1	3
533	29	16	1	3
534	33	14	1	3
535	22	21	1	2
536	23	20	1	5
537	46	10	1	1
538	23	20	1	2
539	27	17	1	2
540	24	19	1	5
541	35	13	1	1
542	45	10	1	3
543	30	15	1	3
544	25	18	1	4
545	32	14	1	3
546	28	16	1	3
547	26	17	1	3
548	44	10	1	2
549	23	19	1	2
550	29	15	1	3
551	31	14	1	1
552	24	18	1	4
553	27	16	1	2
554	24	18	1	2
555	33	13	1	4
556	25	17	1	2
557	21	20	1	1
558	30	14	1	2
559	21	20	1	4
560	22	19	1	3
561	26	16	1	3
562	24	17	1	2
563	37	11	1	5
564	29	14	1	5
565	27	15	1	2
566	31	13	1	1
567	20	20	1	4
568	25	16	1	3
569	20	20	1	4
570	40	10	1	6
571	21	19	1	5
572	22	18	1	6
573	33	12	1	1
574	23	17	1	2
575	30	13	1	3
576	26	15	1	2
577	35	11	1	3
578	24	16	1	3
579	20	19	1	4
580	21	18	1	2
581	27	14	1	2
582	29	13	1	5
583	28	13	1	3
584	26	14	1	6
585	33	11	1	3
586	20	18	1	4
587	24	15	1	1
588	21	17	1	4
589	22	16	1	6
590	32	11	1	3
591	22	16	1	2
592	29	12	1	1
593	23	15	1	2
594	19	18	1	2
595	20	17	1	2
596	34	10	1	2
597	21	16	1	1
598	28	12	1	3
599	33	10	1	3
600	30	11	1	3
601	22	15	1	1
602	25	13	1	4
603	27	12	1	3
604	19	17	1	3
605	23	14	1	1
606	32	10	1	3
607	29	11	1	2
608	21	15	1	2
609	24	13	1	3
610	31	10	1	1
611	22	14	1	1
612	18	17	1	2
613	19	16	1	2
614	27	11	1	1
615	29	10	1	3
616	17	17	1	5
617	24	12	1	3
618	22	13	1	1
619	19	15	1	3
620	20	14	1	3
621	17	16	1	1
622	18	15	1	3
623	22	12	1	3
624	17	15	1	3
625	23	11	1	5
626	18	14	1	4
627	19	13	1	7
628	22	11	1	7
629	24	10	1	3
630	20	12	1	2
631	17	14	1	3
632	18	13	1	4
633	15	15	1	1
634	22	10	1	2
635	16	13	1	3
636	20	10	1	2
637	16	11	1	6
638	17	10	1	2
639	14	12	1	6
640	15	11	1	4
641	13	12	1	1
642	14	10	1	5
